8 40 61 77 114 132 184 203 230 312
0 335 318 8 40 268 224 243 110 134
67 239 145 114 224 252 203 92 287 343
132 196 301 214 318 287 356 341 258 374
40 100 202 166 374 187 71 287 330 251
117 368 217 263 23 338 133 313 184 279
92 145 132 23 8 368 287 266 201 117
222 252 110 62 0 202 8 132 93 37
331 305 20 279 171 315 61 166 134 192
360 315 0 141 239 27 100 171 71 20